17	4
23	17	16	18	
0	0	0	0	0	3	2	3	4	
6	0	3	0	0	3	10	17	17	
2	9	9	9	0	3	5	6	12	
8	8	0	4	0	3	5	6	7	
1	0	9	4	0	3	14	16	17	
225	0	0	8	0	2	13	17	
125	0	9	0	3	3	8	14	17	
75	0	5	0	9	3	9	10	15	
75	0	0	9	0	3	11	13	17	
25	9	5	2	0	2	17	17	
225	7	8	0	6	2	16	17	
200	0	0	0	8	3	17	17	17	
3	2	0	10	0	3	16	17	17	
3	9	0	3	5	3	17	17	17	
9	3	6	0	8	2	17	17	
9	0	4	0	0	3	17	17	17	
0	0	0	0	0	0	
